c description: Random 3-CNF over 16 variables and 64 clauses
p cnf 16 64
8 -11 14 0
-6 7 -15 0
-11 12 14 0
-5 7 11 0
5 9 10 0
-4 -9 -14 0
-1 4 -13 0
6 -8 13 0
-1 6 -14 0
5 -9 -14 0
-3 12 -14 0
-4 -5 11 0
-3 -11 -16 0
9 -11 15 0
-7 -8 14 0
3 10 12 0
2 6 14 0
-1 -3 -5 0
-3 -8 -13 0
2 -4 -7 0
5 8 15 0
-1 -4 8 0
-5 -8 -13 0
-2 -11 13 0
5 -7 -9 0
-3 -9 -16 0
-8 10 -11 0
1 3 13 0
6 12 -13 0
5 -10 12 0
-1 2 8 0
-3 5 -8 0
-5 -15 16 0
-4 -9 15 0
-3 6 10 0
8 -9 -14 0
1 13 16 0
1 8 10 0
-1 -3 -16 0
-5 6 -16 0
-5 12 14 0
10 12 15 0
-5 10 -12 0
-1 -7 8 0
5 6 -16 0
-5 -14 -15 0
-4 11 15 0
-7 10 14 0
-2 4 15 0
-2 5 14 0
-5 -12 -14 0
6 -7 -15 0
-1 -10 12 0
-3 8 -10 0
3 -6 -11 0
-1 -3 13 0
4 -12 -15 0
-1 -6 7 0
2 -10 -12 0
-5 -9 -12 0
-1 -3 9 0
8 10 -14 0
3 -4 -10 0
4 5 8 0